(set-info :smt-lib-version 2.6)
(set-info :source |Patrice Godefroid, SAGE (systematic dynamic test generation). For more information: http://research.microsoft.com/en-us/um/people/pg/public_psfiles/ndss2008.pdf|)
(set-info :category "industrial")
(set-info :status sat)
(set-logic QF_BV)
(declare-fun |T1@53879|  () (_ BitVec 8))
(declare-fun |T1@53878|  () (_ BitVec 8))
(declare-fun |T1@53877|  () (_ BitVec 8))
(declare-fun |T1@53876|  () (_ BitVec 8))
(declare-fun |T1@53883|  () (_ BitVec 8))
(declare-fun |T1@53882|  () (_ BitVec 8))
(declare-fun |T1@53881|  () (_ BitVec 8))
(declare-fun |T1@53880|  () (_ BitVec 8))
(declare-fun |T1@53884|  () (_ BitVec 8))
(assert
(let ((?x6 (bvmul (_ bv4294967295 32) (_ bv31 32))))
(let ((?x8 ((_ zero_extend 24) (_ bv3 8))))
(let ((?x10 ((_ zero_extend 24) (_ bv1 8))))
(let ((?x11 (bvmul (_ bv4294967295 32) ?x10)))
(let ((?x13 ((_ zero_extend 24) |T1@53879|)))
(let ((?x15 ((_ zero_extend 24) (_ bv8 8))))
(let ((?x17 ((_ zero_extend 24) |T1@53878|)))
(let ((?x19 ((_ zero_extend 24) |T1@53877|)))
(let ((?x21 ((_ zero_extend 24) |T1@53876|)))
(let ((?x22 (bvshl ?x21 ?x15)))
(let ((?x23 (bvadd ?x22 ?x19)))
(let ((?x24 (bvshl ?x23 ?x15)))
(let ((?x25 (bvadd ?x24 ?x17)))
(let ((?x26 (bvshl ?x25 ?x15)))
(let ((?x27 (bvadd ?x26 ?x13)))
(let ((?x28 (bvadd ?x27 ?x11)))
(let ((?x29 (bvlshr ?x28 ?x8)))
(let ((?x30 (bvadd ?x29 ?x6)))
(let (($x31 (= ?x30 (_ bv0 32))))
(not $x31)))))))))))))))))))))
(assert
(let ((?x98 (bvmul (_ bv4294967295 32) (_ bv1 32))))
(let ((?x10 ((_ zero_extend 24) (_ bv1 8))))
(let ((?x100 ((_ zero_extend 24) |T1@53883|)))
(let ((?x15 ((_ zero_extend 24) (_ bv8 8))))
(let ((?x102 ((_ zero_extend 24) |T1@53882|)))
(let ((?x104 ((_ zero_extend 24) |T1@53881|)))
(let ((?x106 ((_ zero_extend 24) |T1@53880|)))
(let ((?x107 (bvshl ?x106 ?x15)))
(let ((?x108 (bvadd ?x107 ?x104)))
(let ((?x109 (bvshl ?x108 ?x15)))
(let ((?x110 (bvadd ?x109 ?x102)))
(let ((?x111 (bvshl ?x110 ?x15)))
(let ((?x112 (bvadd ?x111 ?x100)))
(let ((?x113 (bvmul (_ bv4294967295 32) ?x112)))
(let ((?x114 (bvadd (_ bv1 32) ?x113)))
(let (($x115 (bvsgt ?x114 (_ bv0 32))))
(let ((?x116 (ite  $x115 (_ bv1 8) (_ bv0 8))))
(let ((?x117 ((_ zero_extend 24) ?x116)))
(let ((?x118 (bvshl ?x117 ?x10)))
(let ((?x119 (bvadd ?x118 ?x98)))
(let (($x120 (= ?x119 (_ bv0 32))))
(not $x120)))))))))))))))))))))))
(assert
(let ((?x170 (bvmul (_ bv4294967295 32) (_ bv514 32))))
(let ((?x172 ((_ zero_extend 24) (_ bv7 8))))
(let ((?x174 (bvmul (_ bv4294967295 32) (_ bv96 32))))
(let ((?x8 ((_ zero_extend 24) (_ bv3 8))))
(let ((?x100 ((_ zero_extend 24) |T1@53883|)))
(let ((?x15 ((_ zero_extend 24) (_ bv8 8))))
(let ((?x102 ((_ zero_extend 24) |T1@53882|)))
(let ((?x104 ((_ zero_extend 24) |T1@53881|)))
(let ((?x106 ((_ zero_extend 24) |T1@53880|)))
(let ((?x107 (bvshl ?x106 ?x15)))
(let ((?x108 (bvadd ?x107 ?x104)))
(let ((?x109 (bvshl ?x108 ?x15)))
(let ((?x110 (bvadd ?x109 ?x102)))
(let ((?x111 (bvshl ?x110 ?x15)))
(let ((?x112 (bvadd ?x111 ?x100)))
(let ((?x176 (bvadd ?x112 (_ bv7 32))))
(let ((?x177 (bvashr ?x176 ?x8)))
(let ((?x13 ((_ zero_extend 24) |T1@53879|)))
(let ((?x17 ((_ zero_extend 24) |T1@53878|)))
(let ((?x19 ((_ zero_extend 24) |T1@53877|)))
(let ((?x21 ((_ zero_extend 24) |T1@53876|)))
(let ((?x22 (bvshl ?x21 ?x15)))
(let ((?x23 (bvadd ?x22 ?x19)))
(let ((?x24 (bvshl ?x23 ?x15)))
(let ((?x25 (bvadd ?x24 ?x17)))
(let ((?x26 (bvshl ?x25 ?x15)))
(let ((?x27 (bvadd ?x26 ?x13)))
(let ((?x178 (bvadd ?x27 (_ bv7 32))))
(let ((?x179 (bvashr ?x178 ?x8)))
(let (($x180 (bvsgt ?x179 (_ bv0 32))))
(let ((?x181 (ite  $x180 (_ bv1 8) (_ bv0 8))))
(let ((?x182 ((_ zero_extend 24) ?x181)))
(let ((?x185 ((_ zero_extend 24) |T1@53884|)))
(let ((?x186 (bvmul ?x185 (_ bv2 32))))
(let ((?x187 (bvmul ?x179 ?x186)))
(let ((?x188 (bvadd ?x187 (_ bv7 32))))
(let ((?x189 (bvashr ?x188 ?x8)))
(let ((?x190 (bvadd ?x189 ?x182)))
(let ((?x191 (bvmul ?x190 ?x177)))
(let ((?x192 (bvadd ?x27 (_ bv3 32))))
(let ((?x193 (bvashr ?x192 ?x8)))
(let (($x194 (bvsgt ?x193 (_ bv0 32))))
(let ((?x195 (ite  $x194 (_ bv1 8) (_ bv0 8))))
(let ((?x196 ((_ zero_extend 24) ?x195)))
(let ((?x197 (bvmul ?x193 ?x186)))
(let ((?x198 (bvadd ?x197 (_ bv7 32))))
(let ((?x199 (bvashr ?x198 ?x8)))
(let ((?x200 (bvadd ?x199 ?x196)))
(let ((?x201 (bvmul ?x200 ?x177)))
(let ((?x202 (bvadd ?x112 (_ bv3 32))))
(let ((?x203 (bvashr ?x202 ?x8)))
(let ((?x205 ((_ zero_extend 24) (_ bv2 8))))
(let ((?x206 (bvashr ?x192 ?x205)))
(let (($x207 (bvsgt ?x206 (_ bv0 32))))
(let ((?x208 (ite  $x207 (_ bv1 8) (_ bv0 8))))
(let ((?x209 ((_ zero_extend 24) ?x208)))
(let ((?x210 (bvmul ?x206 ?x186)))
(let ((?x211 (bvadd ?x210 (_ bv7 32))))
(let ((?x212 (bvashr ?x211 ?x8)))
(let ((?x213 (bvadd ?x212 ?x209)))
(let ((?x214 (bvmul ?x213 ?x203)))
(let ((?x215 (bvashr ?x202 ?x205)))
(let ((?x10 ((_ zero_extend 24) (_ bv1 8))))
(let ((?x216 (bvadd ?x27 ?x10)))
(let ((?x217 (bvashr ?x216 ?x205)))
(let (($x218 (bvsgt ?x217 (_ bv0 32))))
(let ((?x219 (ite  $x218 (_ bv1 8) (_ bv0 8))))
(let ((?x220 ((_ zero_extend 24) ?x219)))
(let ((?x221 (bvmul ?x217 ?x186)))
(let ((?x222 (bvadd ?x221 (_ bv7 32))))
(let ((?x223 (bvashr ?x222 ?x8)))
(let ((?x224 (bvadd ?x223 ?x220)))
(let ((?x225 (bvmul ?x224 ?x215)))
(let ((?x226 (bvadd ?x112 (_ bv1 32))))
(let ((?x227 (bvashr ?x226 ?x205)))
(let ((?x228 (bvadd ?x27 (_ bv1 32))))
(let ((?x229 (bvashr ?x228 (_ bv1 32))))
(let (($x230 (bvsgt ?x229 (_ bv0 32))))
(let ((?x231 (ite  $x230 (_ bv1 8) (_ bv0 8))))
(let ((?x232 ((_ zero_extend 24) ?x231)))
(let ((?x233 (bvmul ?x229 ?x186)))
(let ((?x234 (bvadd ?x233 (_ bv7 32))))
(let ((?x235 (bvashr ?x234 ?x8)))
(let ((?x236 (bvadd ?x235 ?x232)))
(let ((?x237 (bvmul ?x236 ?x227)))
(let ((?x238 (bvashr ?x226 ?x10)))
(let ((?x239 (bvashr ?x27 (_ bv1 32))))
(let (($x240 (bvsgt ?x239 (_ bv0 32))))
(let ((?x241 (ite  $x240 (_ bv1 8) (_ bv0 8))))
(let ((?x242 ((_ zero_extend 24) ?x241)))
(let ((?x243 (bvmul ?x239 ?x186)))
(let ((?x244 (bvadd ?x243 (_ bv7 32))))
(let ((?x245 (bvashr ?x244 ?x8)))
(let ((?x246 (bvadd ?x245 ?x242)))
(let ((?x247 (bvmul ?x246 ?x238)))
(let ((?x248 (bvadd ?x247 ?x237)))
(let ((?x249 (bvadd ?x248 ?x225)))
(let ((?x250 (bvadd ?x249 ?x214)))
(let ((?x251 (bvadd ?x250 ?x201)))
(let ((?x252 (bvadd ?x251 ?x191)))
(let ((?x253 (bvadd ?x252 ?x174)))
(let ((?x254 (bvlshr ?x253 ?x172)))
(let ((?x255 (bvadd ?x254 ?x170)))
(= ?x255 (_ bv0 32))))))))))))))))))))))))))))))))))))))))))))))))))))))))))))))))))))))))))))))))))))))))))))))))))))))))))
(assert
(let ((?x462 (bvmul (_ bv4294967295 32) (_ bv20 32))))
(let ((?x172 ((_ zero_extend 24) (_ bv7 8))))
(let ((?x174 (bvmul (_ bv4294967295 32) (_ bv96 32))))
(let ((?x8 ((_ zero_extend 24) (_ bv3 8))))
(let ((?x100 ((_ zero_extend 24) |T1@53883|)))
(let ((?x15 ((_ zero_extend 24) (_ bv8 8))))
(let ((?x102 ((_ zero_extend 24) |T1@53882|)))
(let ((?x104 ((_ zero_extend 24) |T1@53881|)))
(let ((?x106 ((_ zero_extend 24) |T1@53880|)))
(let ((?x107 (bvshl ?x106 ?x15)))
(let ((?x108 (bvadd ?x107 ?x104)))
(let ((?x109 (bvshl ?x108 ?x15)))
(let ((?x110 (bvadd ?x109 ?x102)))
(let ((?x111 (bvshl ?x110 ?x15)))
(let ((?x112 (bvadd ?x111 ?x100)))
(let ((?x176 (bvadd ?x112 (_ bv7 32))))
(let ((?x177 (bvashr ?x176 ?x8)))
(let ((?x13 ((_ zero_extend 24) |T1@53879|)))
(let ((?x17 ((_ zero_extend 24) |T1@53878|)))
(let ((?x19 ((_ zero_extend 24) |T1@53877|)))
(let ((?x21 ((_ zero_extend 24) |T1@53876|)))
(let ((?x22 (bvshl ?x21 ?x15)))
(let ((?x23 (bvadd ?x22 ?x19)))
(let ((?x24 (bvshl ?x23 ?x15)))
(let ((?x25 (bvadd ?x24 ?x17)))
(let ((?x26 (bvshl ?x25 ?x15)))
(let ((?x27 (bvadd ?x26 ?x13)))
(let ((?x178 (bvadd ?x27 (_ bv7 32))))
(let ((?x179 (bvashr ?x178 ?x8)))
(let (($x180 (bvsgt ?x179 (_ bv0 32))))
(let ((?x181 (ite  $x180 (_ bv1 8) (_ bv0 8))))
(let ((?x182 ((_ zero_extend 24) ?x181)))
(let ((?x185 ((_ zero_extend 24) |T1@53884|)))
(let ((?x186 (bvmul ?x185 (_ bv2 32))))
(let ((?x187 (bvmul ?x179 ?x186)))
(let ((?x188 (bvadd ?x187 (_ bv7 32))))
(let ((?x189 (bvashr ?x188 ?x8)))
(let ((?x190 (bvadd ?x189 ?x182)))
(let ((?x191 (bvmul ?x190 ?x177)))
(let ((?x192 (bvadd ?x27 (_ bv3 32))))
(let ((?x193 (bvashr ?x192 ?x8)))
(let (($x194 (bvsgt ?x193 (_ bv0 32))))
(let ((?x195 (ite  $x194 (_ bv1 8) (_ bv0 8))))
(let ((?x196 ((_ zero_extend 24) ?x195)))
(let ((?x197 (bvmul ?x193 ?x186)))
(let ((?x198 (bvadd ?x197 (_ bv7 32))))
(let ((?x199 (bvashr ?x198 ?x8)))
(let ((?x200 (bvadd ?x199 ?x196)))
(let ((?x201 (bvmul ?x200 ?x177)))
(let ((?x202 (bvadd ?x112 (_ bv3 32))))
(let ((?x203 (bvashr ?x202 ?x8)))
(let ((?x205 ((_ zero_extend 24) (_ bv2 8))))
(let ((?x206 (bvashr ?x192 ?x205)))
(let (($x207 (bvsgt ?x206 (_ bv0 32))))
(let ((?x208 (ite  $x207 (_ bv1 8) (_ bv0 8))))
(let ((?x209 ((_ zero_extend 24) ?x208)))
(let ((?x210 (bvmul ?x206 ?x186)))
(let ((?x211 (bvadd ?x210 (_ bv7 32))))
(let ((?x212 (bvashr ?x211 ?x8)))
(let ((?x213 (bvadd ?x212 ?x209)))
(let ((?x214 (bvmul ?x213 ?x203)))
(let ((?x215 (bvashr ?x202 ?x205)))
(let ((?x10 ((_ zero_extend 24) (_ bv1 8))))
(let ((?x216 (bvadd ?x27 ?x10)))
(let ((?x217 (bvashr ?x216 ?x205)))
(let (($x218 (bvsgt ?x217 (_ bv0 32))))
(let ((?x219 (ite  $x218 (_ bv1 8) (_ bv0 8))))
(let ((?x220 ((_ zero_extend 24) ?x219)))
(let ((?x221 (bvmul ?x217 ?x186)))
(let ((?x222 (bvadd ?x221 (_ bv7 32))))
(let ((?x223 (bvashr ?x222 ?x8)))
(let ((?x224 (bvadd ?x223 ?x220)))
(let ((?x225 (bvmul ?x224 ?x215)))
(let ((?x226 (bvadd ?x112 (_ bv1 32))))
(let ((?x227 (bvashr ?x226 ?x205)))
(let ((?x228 (bvadd ?x27 (_ bv1 32))))
(let ((?x229 (bvashr ?x228 (_ bv1 32))))
(let (($x230 (bvsgt ?x229 (_ bv0 32))))
(let ((?x231 (ite  $x230 (_ bv1 8) (_ bv0 8))))
(let ((?x232 ((_ zero_extend 24) ?x231)))
(let ((?x233 (bvmul ?x229 ?x186)))
(let ((?x234 (bvadd ?x233 (_ bv7 32))))
(let ((?x235 (bvashr ?x234 ?x8)))
(let ((?x236 (bvadd ?x235 ?x232)))
(let ((?x237 (bvmul ?x236 ?x227)))
(let ((?x238 (bvashr ?x226 ?x10)))
(let ((?x239 (bvashr ?x27 (_ bv1 32))))
(let (($x240 (bvsgt ?x239 (_ bv0 32))))
(let ((?x241 (ite  $x240 (_ bv1 8) (_ bv0 8))))
(let ((?x242 ((_ zero_extend 24) ?x241)))
(let ((?x243 (bvmul ?x239 ?x186)))
(let ((?x244 (bvadd ?x243 (_ bv7 32))))
(let ((?x245 (bvashr ?x244 ?x8)))
(let ((?x246 (bvadd ?x245 ?x242)))
(let ((?x247 (bvmul ?x246 ?x238)))
(let ((?x248 (bvadd ?x247 ?x237)))
(let ((?x249 (bvadd ?x248 ?x225)))
(let ((?x250 (bvadd ?x249 ?x214)))
(let ((?x251 (bvadd ?x250 ?x201)))
(let ((?x252 (bvadd ?x251 ?x191)))
(let ((?x253 (bvadd ?x252 ?x174)))
(let ((?x254 (bvlshr ?x253 ?x172)))
(let ((?x463 (bvadd ?x254 ?x462)))
(let (($x464 (= ?x463 (_ bv0 32))))
(not $x464))))))))))))))))))))))))))))))))))))))))))))))))))))))))))))))))))))))))))))))))))))))))))))))))))))))))))
(assert
(let ((?x486 (bvmul (_ bv4294967295 32) (_ bv8 32))))
(let ((?x8 ((_ zero_extend 24) (_ bv3 8))))
(let ((?x100 ((_ zero_extend 24) |T1@53883|)))
(let ((?x15 ((_ zero_extend 24) (_ bv8 8))))
(let ((?x102 ((_ zero_extend 24) |T1@53882|)))
(let ((?x104 ((_ zero_extend 24) |T1@53881|)))
(let ((?x106 ((_ zero_extend 24) |T1@53880|)))
(let ((?x107 (bvshl ?x106 ?x15)))
(let ((?x108 (bvadd ?x107 ?x104)))
(let ((?x109 (bvshl ?x108 ?x15)))
(let ((?x110 (bvadd ?x109 ?x102)))
(let ((?x111 (bvshl ?x110 ?x15)))
(let ((?x112 (bvadd ?x111 ?x100)))
(let ((?x176 (bvadd ?x112 (_ bv7 32))))
(let ((?x177 (bvashr ?x176 ?x8)))
(let ((?x13 ((_ zero_extend 24) |T1@53879|)))
(let ((?x17 ((_ zero_extend 24) |T1@53878|)))
(let ((?x19 ((_ zero_extend 24) |T1@53877|)))
(let ((?x21 ((_ zero_extend 24) |T1@53876|)))
(let ((?x22 (bvshl ?x21 ?x15)))
(let ((?x23 (bvadd ?x22 ?x19)))
(let ((?x24 (bvshl ?x23 ?x15)))
(let ((?x25 (bvadd ?x24 ?x17)))
(let ((?x26 (bvshl ?x25 ?x15)))
(let ((?x27 (bvadd ?x26 ?x13)))
(let ((?x178 (bvadd ?x27 (_ bv7 32))))
(let ((?x179 (bvashr ?x178 ?x8)))
(let (($x180 (bvsgt ?x179 (_ bv0 32))))
(let ((?x181 (ite  $x180 (_ bv1 8) (_ bv0 8))))
(let ((?x182 ((_ zero_extend 24) ?x181)))
(let ((?x185 ((_ zero_extend 24) |T1@53884|)))
(let ((?x186 (bvmul ?x185 (_ bv2 32))))
(let ((?x187 (bvmul ?x179 ?x186)))
(let ((?x188 (bvadd ?x187 (_ bv7 32))))
(let ((?x189 (bvashr ?x188 ?x8)))
(let ((?x190 (bvadd ?x189 ?x182)))
(let ((?x191 (bvmul ?x190 ?x177)))
(let ((?x192 (bvadd ?x27 (_ bv3 32))))
(let ((?x193 (bvashr ?x192 ?x8)))
(let (($x194 (bvsgt ?x193 (_ bv0 32))))
(let ((?x195 (ite  $x194 (_ bv1 8) (_ bv0 8))))
(let ((?x196 ((_ zero_extend 24) ?x195)))
(let ((?x197 (bvmul ?x193 ?x186)))
(let ((?x198 (bvadd ?x197 (_ bv7 32))))
(let ((?x199 (bvashr ?x198 ?x8)))
(let ((?x200 (bvadd ?x199 ?x196)))
(let ((?x201 (bvmul ?x200 ?x177)))
(let ((?x202 (bvadd ?x112 (_ bv3 32))))
(let ((?x203 (bvashr ?x202 ?x8)))
(let ((?x205 ((_ zero_extend 24) (_ bv2 8))))
(let ((?x206 (bvashr ?x192 ?x205)))
(let (($x207 (bvsgt ?x206 (_ bv0 32))))
(let ((?x208 (ite  $x207 (_ bv1 8) (_ bv0 8))))
(let ((?x209 ((_ zero_extend 24) ?x208)))
(let ((?x210 (bvmul ?x206 ?x186)))
(let ((?x211 (bvadd ?x210 (_ bv7 32))))
(let ((?x212 (bvashr ?x211 ?x8)))
(let ((?x213 (bvadd ?x212 ?x209)))
(let ((?x214 (bvmul ?x213 ?x203)))
(let ((?x215 (bvashr ?x202 ?x205)))
(let ((?x10 ((_ zero_extend 24) (_ bv1 8))))
(let ((?x216 (bvadd ?x27 ?x10)))
(let ((?x217 (bvashr ?x216 ?x205)))
(let (($x218 (bvsgt ?x217 (_ bv0 32))))
(let ((?x219 (ite  $x218 (_ bv1 8) (_ bv0 8))))
(let ((?x220 ((_ zero_extend 24) ?x219)))
(let ((?x221 (bvmul ?x217 ?x186)))
(let ((?x222 (bvadd ?x221 (_ bv7 32))))
(let ((?x223 (bvashr ?x222 ?x8)))
(let ((?x224 (bvadd ?x223 ?x220)))
(let ((?x225 (bvmul ?x224 ?x215)))
(let ((?x226 (bvadd ?x112 (_ bv1 32))))
(let ((?x227 (bvashr ?x226 ?x205)))
(let ((?x228 (bvadd ?x27 (_ bv1 32))))
(let ((?x229 (bvashr ?x228 (_ bv1 32))))
(let (($x230 (bvsgt ?x229 (_ bv0 32))))
(let ((?x231 (ite  $x230 (_ bv1 8) (_ bv0 8))))
(let ((?x232 ((_ zero_extend 24) ?x231)))
(let ((?x233 (bvmul ?x229 ?x186)))
(let ((?x234 (bvadd ?x233 (_ bv7 32))))
(let ((?x235 (bvashr ?x234 ?x8)))
(let ((?x236 (bvadd ?x235 ?x232)))
(let ((?x237 (bvmul ?x236 ?x227)))
(let ((?x238 (bvashr ?x226 ?x10)))
(let ((?x239 (bvashr ?x27 (_ bv1 32))))
(let (($x240 (bvsgt ?x239 (_ bv0 32))))
(let ((?x241 (ite  $x240 (_ bv1 8) (_ bv0 8))))
(let ((?x242 ((_ zero_extend 24) ?x241)))
(let ((?x243 (bvmul ?x239 ?x186)))
(let ((?x244 (bvadd ?x243 (_ bv7 32))))
(let ((?x245 (bvashr ?x244 ?x8)))
(let ((?x246 (bvadd ?x245 ?x242)))
(let ((?x247 (bvmul ?x246 ?x238)))
(let ((?x248 (bvadd ?x247 ?x237)))
(let ((?x249 (bvadd ?x248 ?x225)))
(let ((?x250 (bvadd ?x249 ?x214)))
(let ((?x251 (bvadd ?x250 ?x201)))
(let ((?x252 (bvadd ?x251 ?x191)))
(let ((?x487 (bvadd ?x252 ?x486)))
(let (($x488 (= ?x487 (_ bv88 32))))
(not $x488))))))))))))))))))))))))))))))))))))))))))))))))))))))))))))))))))))))))))))))))))))))))))))))))))))))
(assert
(let ((?x100 ((_ zero_extend 24) |T1@53883|)))
(let ((?x15 ((_ zero_extend 24) (_ bv8 8))))
(let ((?x102 ((_ zero_extend 24) |T1@53882|)))
(let ((?x104 ((_ zero_extend 24) |T1@53881|)))
(let ((?x106 ((_ zero_extend 24) |T1@53880|)))
(let ((?x107 (bvshl ?x106 ?x15)))
(let ((?x108 (bvadd ?x107 ?x104)))
(let ((?x109 (bvshl ?x108 ?x15)))
(let ((?x110 (bvadd ?x109 ?x102)))
(let ((?x111 (bvshl ?x110 ?x15)))
(let ((?x112 (bvadd ?x111 ?x100)))
(let ((?x497 (bvadd ?x112 (_ bv2147483655 32))))
(bvule ?x497 (_ bv4294967295 32)))))))))))))))
(assert
(let ((?x100 ((_ zero_extend 24) |T1@53883|)))
(let ((?x15 ((_ zero_extend 24) (_ bv8 8))))
(let ((?x102 ((_ zero_extend 24) |T1@53882|)))
(let ((?x104 ((_ zero_extend 24) |T1@53881|)))
(let ((?x106 ((_ zero_extend 24) |T1@53880|)))
(let ((?x107 (bvshl ?x106 ?x15)))
(let ((?x108 (bvadd ?x107 ?x104)))
(let ((?x109 (bvshl ?x108 ?x15)))
(let ((?x110 (bvadd ?x109 ?x102)))
(let ((?x111 (bvshl ?x110 ?x15)))
(let ((?x112 (bvadd ?x111 ?x100)))
(let ((?x503 (bvadd ?x112 (_ bv2147483651 32))))
(bvule ?x503 (_ bv4294967295 32)))))))))))))))
(assert
(let ((?x100 ((_ zero_extend 24) |T1@53883|)))
(let ((?x15 ((_ zero_extend 24) (_ bv8 8))))
(let ((?x102 ((_ zero_extend 24) |T1@53882|)))
(let ((?x104 ((_ zero_extend 24) |T1@53881|)))
(let ((?x106 ((_ zero_extend 24) |T1@53880|)))
(let ((?x107 (bvshl ?x106 ?x15)))
(let ((?x108 (bvadd ?x107 ?x104)))
(let ((?x109 (bvshl ?x108 ?x15)))
(let ((?x110 (bvadd ?x109 ?x102)))
(let ((?x111 (bvshl ?x110 ?x15)))
(let ((?x112 (bvadd ?x111 ?x100)))
(let ((?x510 (bvadd ?x112 (_ bv2147483649 32))))
(bvule ?x510 (_ bv4294967295 32)))))))))))))))
(assert
(let ((?x100 ((_ zero_extend 24) |T1@53883|)))
(let ((?x15 ((_ zero_extend 24) (_ bv8 8))))
(let ((?x102 ((_ zero_extend 24) |T1@53882|)))
(let ((?x104 ((_ zero_extend 24) |T1@53881|)))
(let ((?x106 ((_ zero_extend 24) |T1@53880|)))
(let ((?x107 (bvshl ?x106 ?x15)))
(let ((?x108 (bvadd ?x107 ?x104)))
(let ((?x109 (bvshl ?x108 ?x15)))
(let ((?x110 (bvadd ?x109 ?x102)))
(let ((?x111 (bvshl ?x110 ?x15)))
(let ((?x112 (bvadd ?x111 ?x100)))
(let ((?x113 (bvmul (_ bv4294967295 32) ?x112)))
(let ((?x114 (bvadd (_ bv1 32) ?x113)))
(let (($x515 (= ?x114 (_ bv0 32))))
(not $x515))))))))))))))))
(assert
(let ((?x8 ((_ zero_extend 24) (_ bv3 8))))
(let ((?x100 ((_ zero_extend 24) |T1@53883|)))
(let ((?x15 ((_ zero_extend 24) (_ bv8 8))))
(let ((?x102 ((_ zero_extend 24) |T1@53882|)))
(let ((?x104 ((_ zero_extend 24) |T1@53881|)))
(let ((?x106 ((_ zero_extend 24) |T1@53880|)))
(let ((?x107 (bvshl ?x106 ?x15)))
(let ((?x108 (bvadd ?x107 ?x104)))
(let ((?x109 (bvshl ?x108 ?x15)))
(let ((?x110 (bvadd ?x109 ?x102)))
(let ((?x111 (bvshl ?x110 ?x15)))
(let ((?x112 (bvadd ?x111 ?x100)))
(let ((?x176 (bvadd ?x112 (_ bv7 32))))
(let ((?x177 (bvashr ?x176 ?x8)))
(let ((?x13 ((_ zero_extend 24) |T1@53879|)))
(let ((?x17 ((_ zero_extend 24) |T1@53878|)))
(let ((?x19 ((_ zero_extend 24) |T1@53877|)))
(let ((?x21 ((_ zero_extend 24) |T1@53876|)))
(let ((?x22 (bvshl ?x21 ?x15)))
(let ((?x23 (bvadd ?x22 ?x19)))
(let ((?x24 (bvshl ?x23 ?x15)))
(let ((?x25 (bvadd ?x24 ?x17)))
(let ((?x26 (bvshl ?x25 ?x15)))
(let ((?x27 (bvadd ?x26 ?x13)))
(let ((?x178 (bvadd ?x27 (_ bv7 32))))
(let ((?x179 (bvashr ?x178 ?x8)))
(let (($x180 (bvsgt ?x179 (_ bv0 32))))
(let ((?x181 (ite  $x180 (_ bv1 8) (_ bv0 8))))
(let ((?x182 ((_ zero_extend 24) ?x181)))
(let ((?x185 ((_ zero_extend 24) |T1@53884|)))
(let ((?x186 (bvmul ?x185 (_ bv2 32))))
(let ((?x187 (bvmul ?x179 ?x186)))
(let ((?x188 (bvadd ?x187 (_ bv7 32))))
(let ((?x189 (bvashr ?x188 ?x8)))
(let ((?x190 (bvadd ?x189 ?x182)))
(let ((?x191 (bvmul ?x190 ?x177)))
(let ((?x192 (bvadd ?x27 (_ bv3 32))))
(let ((?x193 (bvashr ?x192 ?x8)))
(let (($x194 (bvsgt ?x193 (_ bv0 32))))
(let ((?x195 (ite  $x194 (_ bv1 8) (_ bv0 8))))
(let ((?x196 ((_ zero_extend 24) ?x195)))
(let ((?x197 (bvmul ?x193 ?x186)))
(let ((?x198 (bvadd ?x197 (_ bv7 32))))
(let ((?x199 (bvashr ?x198 ?x8)))
(let ((?x200 (bvadd ?x199 ?x196)))
(let ((?x201 (bvmul ?x200 ?x177)))
(let ((?x202 (bvadd ?x112 (_ bv3 32))))
(let ((?x203 (bvashr ?x202 ?x8)))
(let ((?x205 ((_ zero_extend 24) (_ bv2 8))))
(let ((?x206 (bvashr ?x192 ?x205)))
(let (($x207 (bvsgt ?x206 (_ bv0 32))))
(let ((?x208 (ite  $x207 (_ bv1 8) (_ bv0 8))))
(let ((?x209 ((_ zero_extend 24) ?x208)))
(let ((?x210 (bvmul ?x206 ?x186)))
(let ((?x211 (bvadd ?x210 (_ bv7 32))))
(let ((?x212 (bvashr ?x211 ?x8)))
(let ((?x213 (bvadd ?x212 ?x209)))
(let ((?x214 (bvmul ?x213 ?x203)))
(let ((?x215 (bvashr ?x202 ?x205)))
(let ((?x10 ((_ zero_extend 24) (_ bv1 8))))
(let ((?x216 (bvadd ?x27 ?x10)))
(let ((?x217 (bvashr ?x216 ?x205)))
(let (($x218 (bvsgt ?x217 (_ bv0 32))))
(let ((?x219 (ite  $x218 (_ bv1 8) (_ bv0 8))))
(let ((?x220 ((_ zero_extend 24) ?x219)))
(let ((?x221 (bvmul ?x217 ?x186)))
(let ((?x222 (bvadd ?x221 (_ bv7 32))))
(let ((?x223 (bvashr ?x222 ?x8)))
(let ((?x224 (bvadd ?x223 ?x220)))
(let ((?x225 (bvmul ?x224 ?x215)))
(let ((?x226 (bvadd ?x112 (_ bv1 32))))
(let ((?x227 (bvashr ?x226 ?x205)))
(let ((?x228 (bvadd ?x27 (_ bv1 32))))
(let ((?x229 (bvashr ?x228 (_ bv1 32))))
(let (($x230 (bvsgt ?x229 (_ bv0 32))))
(let ((?x231 (ite  $x230 (_ bv1 8) (_ bv0 8))))
(let ((?x232 ((_ zero_extend 24) ?x231)))
(let ((?x233 (bvmul ?x229 ?x186)))
(let ((?x234 (bvadd ?x233 (_ bv7 32))))
(let ((?x235 (bvashr ?x234 ?x8)))
(let ((?x236 (bvadd ?x235 ?x232)))
(let ((?x237 (bvmul ?x236 ?x227)))
(let ((?x238 (bvashr ?x226 ?x10)))
(let ((?x239 (bvashr ?x27 (_ bv1 32))))
(let (($x240 (bvsgt ?x239 (_ bv0 32))))
(let ((?x241 (ite  $x240 (_ bv1 8) (_ bv0 8))))
(let ((?x242 ((_ zero_extend 24) ?x241)))
(let ((?x243 (bvmul ?x239 ?x186)))
(let ((?x244 (bvadd ?x243 (_ bv7 32))))
(let ((?x245 (bvashr ?x244 ?x8)))
(let ((?x246 (bvadd ?x245 ?x242)))
(let ((?x247 (bvmul ?x246 ?x238)))
(let ((?x248 (bvadd ?x247 ?x237)))
(let ((?x249 (bvadd ?x248 ?x225)))
(let ((?x250 (bvadd ?x249 ?x214)))
(let ((?x251 (bvadd ?x250 ?x201)))
(let ((?x252 (bvadd ?x251 ?x191)))
(bvuge ?x252 (_ bv256 32))))))))))))))))))))))))))))))))))))))))))))))))))))))))))))))))))))))))))))))))))))))))))))))))))))
(assert
(let ((?x8 ((_ zero_extend 24) (_ bv3 8))))
(let ((?x100 ((_ zero_extend 24) |T1@53883|)))
(let ((?x15 ((_ zero_extend 24) (_ bv8 8))))
(let ((?x102 ((_ zero_extend 24) |T1@53882|)))
(let ((?x104 ((_ zero_extend 24) |T1@53881|)))
(let ((?x106 ((_ zero_extend 24) |T1@53880|)))
(let ((?x107 (bvshl ?x106 ?x15)))
(let ((?x108 (bvadd ?x107 ?x104)))
(let ((?x109 (bvshl ?x108 ?x15)))
(let ((?x110 (bvadd ?x109 ?x102)))
(let ((?x111 (bvshl ?x110 ?x15)))
(let ((?x112 (bvadd ?x111 ?x100)))
(let ((?x176 (bvadd ?x112 (_ bv7 32))))
(let ((?x177 (bvashr ?x176 ?x8)))
(let ((?x13 ((_ zero_extend 24) |T1@53879|)))
(let ((?x17 ((_ zero_extend 24) |T1@53878|)))
(let ((?x19 ((_ zero_extend 24) |T1@53877|)))
(let ((?x21 ((_ zero_extend 24) |T1@53876|)))
(let ((?x22 (bvshl ?x21 ?x15)))
(let ((?x23 (bvadd ?x22 ?x19)))
(let ((?x24 (bvshl ?x23 ?x15)))
(let ((?x25 (bvadd ?x24 ?x17)))
(let ((?x26 (bvshl ?x25 ?x15)))
(let ((?x27 (bvadd ?x26 ?x13)))
(let ((?x178 (bvadd ?x27 (_ bv7 32))))
(let ((?x179 (bvashr ?x178 ?x8)))
(let (($x180 (bvsgt ?x179 (_ bv0 32))))
(let ((?x181 (ite  $x180 (_ bv1 8) (_ bv0 8))))
(let ((?x182 ((_ zero_extend 24) ?x181)))
(let ((?x185 ((_ zero_extend 24) |T1@53884|)))
(let ((?x186 (bvmul ?x185 (_ bv2 32))))
(let ((?x187 (bvmul ?x179 ?x186)))
(let ((?x188 (bvadd ?x187 (_ bv7 32))))
(let ((?x189 (bvashr ?x188 ?x8)))
(let ((?x190 (bvadd ?x189 ?x182)))
(let ((?x191 (bvmul ?x190 ?x177)))
(let ((?x192 (bvadd ?x27 (_ bv3 32))))
(let ((?x193 (bvashr ?x192 ?x8)))
(let (($x194 (bvsgt ?x193 (_ bv0 32))))
(let ((?x195 (ite  $x194 (_ bv1 8) (_ bv0 8))))
(let ((?x196 ((_ zero_extend 24) ?x195)))
(let ((?x197 (bvmul ?x193 ?x186)))
(let ((?x198 (bvadd ?x197 (_ bv7 32))))
(let ((?x199 (bvashr ?x198 ?x8)))
(let ((?x200 (bvadd ?x199 ?x196)))
(let ((?x201 (bvmul ?x200 ?x177)))
(let ((?x202 (bvadd ?x112 (_ bv3 32))))
(let ((?x203 (bvashr ?x202 ?x8)))
(let ((?x205 ((_ zero_extend 24) (_ bv2 8))))
(let ((?x206 (bvashr ?x192 ?x205)))
(let (($x207 (bvsgt ?x206 (_ bv0 32))))
(let ((?x208 (ite  $x207 (_ bv1 8) (_ bv0 8))))
(let ((?x209 ((_ zero_extend 24) ?x208)))
(let ((?x210 (bvmul ?x206 ?x186)))
(let ((?x211 (bvadd ?x210 (_ bv7 32))))
(let ((?x212 (bvashr ?x211 ?x8)))
(let ((?x213 (bvadd ?x212 ?x209)))
(let ((?x214 (bvmul ?x213 ?x203)))
(let ((?x215 (bvashr ?x202 ?x205)))
(let ((?x10 ((_ zero_extend 24) (_ bv1 8))))
(let ((?x216 (bvadd ?x27 ?x10)))
(let ((?x217 (bvashr ?x216 ?x205)))
(let (($x218 (bvsgt ?x217 (_ bv0 32))))
(let ((?x219 (ite  $x218 (_ bv1 8) (_ bv0 8))))
(let ((?x220 ((_ zero_extend 24) ?x219)))
(let ((?x221 (bvmul ?x217 ?x186)))
(let ((?x222 (bvadd ?x221 (_ bv7 32))))
(let ((?x223 (bvashr ?x222 ?x8)))
(let ((?x224 (bvadd ?x223 ?x220)))
(let ((?x225 (bvmul ?x224 ?x215)))
(let ((?x226 (bvadd ?x112 (_ bv1 32))))
(let ((?x227 (bvashr ?x226 ?x205)))
(let ((?x228 (bvadd ?x27 (_ bv1 32))))
(let ((?x229 (bvashr ?x228 (_ bv1 32))))
(let (($x230 (bvsgt ?x229 (_ bv0 32))))
(let ((?x231 (ite  $x230 (_ bv1 8) (_ bv0 8))))
(let ((?x232 ((_ zero_extend 24) ?x231)))
(let ((?x233 (bvmul ?x229 ?x186)))
(let ((?x234 (bvadd ?x233 (_ bv7 32))))
(let ((?x235 (bvashr ?x234 ?x8)))
(let ((?x236 (bvadd ?x235 ?x232)))
(let ((?x237 (bvmul ?x236 ?x227)))
(let ((?x238 (bvashr ?x226 ?x10)))
(let ((?x239 (bvashr ?x27 (_ bv1 32))))
(let (($x240 (bvsgt ?x239 (_ bv0 32))))
(let ((?x241 (ite  $x240 (_ bv1 8) (_ bv0 8))))
(let ((?x242 ((_ zero_extend 24) ?x241)))
(let ((?x243 (bvmul ?x239 ?x186)))
(let ((?x244 (bvadd ?x243 (_ bv7 32))))
(let ((?x245 (bvashr ?x244 ?x8)))
(let ((?x246 (bvadd ?x245 ?x242)))
(let ((?x247 (bvmul ?x246 ?x238)))
(let ((?x248 (bvadd ?x247 ?x237)))
(let ((?x249 (bvadd ?x248 ?x225)))
(let ((?x250 (bvadd ?x249 ?x214)))
(let ((?x251 (bvadd ?x250 ?x201)))
(let ((?x252 (bvadd ?x251 ?x191)))
(let (($x525 (= ?x252 (_ bv0 32))))
(not $x525))))))))))))))))))))))))))))))))))))))))))))))))))))))))))))))))))))))))))))))))))))))))))))))))))))
(assert
(let ((?x100 ((_ zero_extend 24) |T1@53883|)))
(let ((?x15 ((_ zero_extend 24) (_ bv8 8))))
(let ((?x102 ((_ zero_extend 24) |T1@53882|)))
(let ((?x104 ((_ zero_extend 24) |T1@53881|)))
(let ((?x106 ((_ zero_extend 24) |T1@53880|)))
(let ((?x107 (bvshl ?x106 ?x15)))
(let ((?x108 (bvadd ?x107 ?x104)))
(let ((?x109 (bvshl ?x108 ?x15)))
(let ((?x110 (bvadd ?x109 ?x102)))
(let ((?x111 (bvshl ?x110 ?x15)))
(let ((?x112 (bvadd ?x111 ?x100)))
(let (($x531 (= (_ bv1 32) ?x112)))
(not $x531))))))))))))))
(assert
(let ((?x100 ((_ zero_extend 24) |T1@53883|)))
(let ((?x15 ((_ zero_extend 24) (_ bv8 8))))
(let ((?x102 ((_ zero_extend 24) |T1@53882|)))
(let ((?x104 ((_ zero_extend 24) |T1@53881|)))
(let ((?x106 ((_ zero_extend 24) |T1@53880|)))
(let ((?x107 (bvshl ?x106 ?x15)))
(let ((?x108 (bvadd ?x107 ?x104)))
(let ((?x109 (bvshl ?x108 ?x15)))
(let ((?x110 (bvadd ?x109 ?x102)))
(let ((?x111 (bvshl ?x110 ?x15)))
(let ((?x112 (bvadd ?x111 ?x100)))
(bvugt ?x112 (_ bv0 32))))))))))))))
(assert
(let ((?x100 ((_ zero_extend 24) |T1@53883|)))
(let ((?x15 ((_ zero_extend 24) (_ bv8 8))))
(let ((?x102 ((_ zero_extend 24) |T1@53882|)))
(let ((?x104 ((_ zero_extend 24) |T1@53881|)))
(let ((?x106 ((_ zero_extend 24) |T1@53880|)))
(let ((?x107 (bvshl ?x106 ?x15)))
(let ((?x108 (bvadd ?x107 ?x104)))
(let ((?x109 (bvshl ?x108 ?x15)))
(let ((?x110 (bvadd ?x109 ?x102)))
(let ((?x111 (bvshl ?x110 ?x15)))
(let ((?x112 (bvadd ?x111 ?x100)))
(bvult ?x112 (_ bv2097097 32))))))))))))))
(assert
(let ((?x100 ((_ zero_extend 24) |T1@53883|)))
(let ((?x15 ((_ zero_extend 24) (_ bv8 8))))
(let ((?x102 ((_ zero_extend 24) |T1@53882|)))
(let ((?x104 ((_ zero_extend 24) |T1@53881|)))
(let ((?x106 ((_ zero_extend 24) |T1@53880|)))
(let ((?x107 (bvshl ?x106 ?x15)))
(let ((?x108 (bvadd ?x107 ?x104)))
(let ((?x109 (bvshl ?x108 ?x15)))
(let ((?x110 (bvadd ?x109 ?x102)))
(let ((?x111 (bvshl ?x110 ?x15)))
(let ((?x112 (bvadd ?x111 ?x100)))
(bvsgt ?x112 (_ bv0 32))))))))))))))
(assert
(let ((?x100 ((_ zero_extend 24) |T1@53883|)))
(let ((?x15 ((_ zero_extend 24) (_ bv8 8))))
(let ((?x102 ((_ zero_extend 24) |T1@53882|)))
(let ((?x104 ((_ zero_extend 24) |T1@53881|)))
(let ((?x106 ((_ zero_extend 24) |T1@53880|)))
(let ((?x107 (bvshl ?x106 ?x15)))
(let ((?x108 (bvadd ?x107 ?x104)))
(let ((?x109 (bvshl ?x108 ?x15)))
(let ((?x110 (bvadd ?x109 ?x102)))
(let ((?x111 (bvshl ?x110 ?x15)))
(let ((?x112 (bvadd ?x111 ?x100)))
(let (($x645 (= ?x112 (_ bv0 32))))
(not $x645))))))))))))))
(assert
(let ((?x100 ((_ zero_extend 24) |T1@53883|)))
(let ((?x15 ((_ zero_extend 24) (_ bv8 8))))
(let ((?x102 ((_ zero_extend 24) |T1@53882|)))
(let ((?x104 ((_ zero_extend 24) |T1@53881|)))
(let ((?x106 ((_ zero_extend 24) |T1@53880|)))
(let ((?x107 (bvshl ?x106 ?x15)))
(let ((?x108 (bvadd ?x107 ?x104)))
(let ((?x109 (bvshl ?x108 ?x15)))
(let ((?x110 (bvadd ?x109 ?x102)))
(let ((?x111 (bvshl ?x110 ?x15)))
(let ((?x112 (bvadd ?x111 ?x100)))
(bvule ?x112 (_ bv512000 32))))))))))))))
(assert
(let ((?x8 ((_ zero_extend 24) (_ bv3 8))))
(let ((?x13 ((_ zero_extend 24) |T1@53879|)))
(let ((?x15 ((_ zero_extend 24) (_ bv8 8))))
(let ((?x17 ((_ zero_extend 24) |T1@53878|)))
(let ((?x19 ((_ zero_extend 24) |T1@53877|)))
(let ((?x21 ((_ zero_extend 24) |T1@53876|)))
(let ((?x22 (bvshl ?x21 ?x15)))
(let ((?x23 (bvadd ?x22 ?x19)))
(let ((?x24 (bvshl ?x23 ?x15)))
(let ((?x25 (bvadd ?x24 ?x17)))
(let ((?x26 (bvshl ?x25 ?x15)))
(let ((?x27 (bvadd ?x26 ?x13)))
(let ((?x178 (bvadd ?x27 (_ bv7 32))))
(let ((?x179 (bvashr ?x178 ?x8)))
(let (($x180 (bvsgt ?x179 (_ bv0 32))))
(let ((?x181 (ite  $x180 (_ bv1 8) (_ bv0 8))))
(let ((?x182 ((_ zero_extend 24) ?x181)))
(let ((?x185 ((_ zero_extend 24) |T1@53884|)))
(let ((?x186 (bvmul ?x185 (_ bv2 32))))
(let ((?x187 (bvmul ?x179 ?x186)))
(let ((?x188 (bvadd ?x187 (_ bv7 32))))
(let ((?x189 (bvashr ?x188 ?x8)))
(let ((?x190 (bvadd ?x189 ?x182)))
(bvuge ?x190 (_ bv2 32))))))))))))))))))))))))))
(assert
(let ((?x8 ((_ zero_extend 24) (_ bv3 8))))
(let ((?x13 ((_ zero_extend 24) |T1@53879|)))
(let ((?x15 ((_ zero_extend 24) (_ bv8 8))))
(let ((?x17 ((_ zero_extend 24) |T1@53878|)))
(let ((?x19 ((_ zero_extend 24) |T1@53877|)))
(let ((?x21 ((_ zero_extend 24) |T1@53876|)))
(let ((?x22 (bvshl ?x21 ?x15)))
(let ((?x23 (bvadd ?x22 ?x19)))
(let ((?x24 (bvshl ?x23 ?x15)))
(let ((?x25 (bvadd ?x24 ?x17)))
(let ((?x26 (bvshl ?x25 ?x15)))
(let ((?x27 (bvadd ?x26 ?x13)))
(let ((?x178 (bvadd ?x27 (_ bv7 32))))
(let ((?x179 (bvashr ?x178 ?x8)))
(let (($x180 (bvsgt ?x179 (_ bv0 32))))
(let ((?x181 (ite  $x180 (_ bv1 8) (_ bv0 8))))
(let ((?x182 ((_ zero_extend 24) ?x181)))
(let ((?x185 ((_ zero_extend 24) |T1@53884|)))
(let ((?x186 (bvmul ?x185 (_ bv2 32))))
(let ((?x187 (bvmul ?x179 ?x186)))
(let ((?x188 (bvadd ?x187 (_ bv7 32))))
(let ((?x189 (bvashr ?x188 ?x8)))
(let ((?x190 (bvadd ?x189 ?x182)))
(bvsgt ?x190 (_ bv0 32))))))))))))))))))))))))))
(assert
(let ((?x8 ((_ zero_extend 24) (_ bv3 8))))
(let ((?x13 ((_ zero_extend 24) |T1@53879|)))
(let ((?x15 ((_ zero_extend 24) (_ bv8 8))))
(let ((?x17 ((_ zero_extend 24) |T1@53878|)))
(let ((?x19 ((_ zero_extend 24) |T1@53877|)))
(let ((?x21 ((_ zero_extend 24) |T1@53876|)))
(let ((?x22 (bvshl ?x21 ?x15)))
(let ((?x23 (bvadd ?x22 ?x19)))
(let ((?x24 (bvshl ?x23 ?x15)))
(let ((?x25 (bvadd ?x24 ?x17)))
(let ((?x26 (bvshl ?x25 ?x15)))
(let ((?x27 (bvadd ?x26 ?x13)))
(let ((?x178 (bvadd ?x27 (_ bv7 32))))
(let ((?x179 (bvashr ?x178 ?x8)))
(let (($x180 (bvsgt ?x179 (_ bv0 32))))
(let ((?x181 (ite  $x180 (_ bv1 8) (_ bv0 8))))
(let ((?x182 ((_ zero_extend 24) ?x181)))
(let ((?x185 ((_ zero_extend 24) |T1@53884|)))
(let ((?x186 (bvmul ?x185 (_ bv2 32))))
(let ((?x187 (bvmul ?x179 ?x186)))
(let ((?x188 (bvadd ?x187 (_ bv7 32))))
(let ((?x189 (bvashr ?x188 ?x8)))
(let ((?x190 (bvadd ?x189 ?x182)))
(bvult ?x190 (_ bv2048 32))))))))))))))))))))))))))
(assert
(let ((?x8 ((_ zero_extend 24) (_ bv3 8))))
(let ((?x13 ((_ zero_extend 24) |T1@53879|)))
(let ((?x15 ((_ zero_extend 24) (_ bv8 8))))
(let ((?x17 ((_ zero_extend 24) |T1@53878|)))
(let ((?x19 ((_ zero_extend 24) |T1@53877|)))
(let ((?x21 ((_ zero_extend 24) |T1@53876|)))
(let ((?x22 (bvshl ?x21 ?x15)))
(let ((?x23 (bvadd ?x22 ?x19)))
(let ((?x24 (bvshl ?x23 ?x15)))
(let ((?x25 (bvadd ?x24 ?x17)))
(let ((?x26 (bvshl ?x25 ?x15)))
(let ((?x27 (bvadd ?x26 ?x13)))
(let ((?x178 (bvadd ?x27 (_ bv7 32))))
(let ((?x179 (bvashr ?x178 ?x8)))
(let (($x180 (bvsgt ?x179 (_ bv0 32))))
(let ((?x181 (ite  $x180 (_ bv1 8) (_ bv0 8))))
(let ((?x182 ((_ zero_extend 24) ?x181)))
(let ((?x185 ((_ zero_extend 24) |T1@53884|)))
(let ((?x186 (bvmul ?x185 (_ bv2 32))))
(let ((?x187 (bvmul ?x179 ?x186)))
(let ((?x188 (bvadd ?x187 (_ bv7 32))))
(let ((?x189 (bvashr ?x188 ?x8)))
(let ((?x190 (bvadd ?x189 ?x182)))
(bvugt ?x190 (_ bv0 32))))))))))))))))))))))))))
(assert
(let ((?x98 (bvmul (_ bv4294967295 32) (_ bv1 32))))
(let ((?x185 ((_ zero_extend 24) |T1@53884|)))
(let ((?x676 (bvadd ?x185 ?x98)))
(let ((?x677 (bvand ?x185 ?x676)))
(= ?x677 (_ bv0 32)))))))
(assert
(let ((?x185 ((_ zero_extend 24) |T1@53884|)))
(let (($x731 (= ?x185 (_ bv0 32))))
(not $x731))))
(assert
(= |T1@53884| (_ bv8 8)))
(assert
(let ((?x185 ((_ zero_extend 24) |T1@53884|)))
(bvsle ?x185 (_ bv16 32))))
(assert
(let (($x742 (= |T1@53884| (_ bv0 8))))
(not $x742)))
(assert
(let ((?x185 ((_ zero_extend 24) |T1@53884|)))
(let ((?x186 (bvmul ?x185 (_ bv2 32))))
(bvsge ?x186 (_ bv4 32)))))
(assert
(let ((?x185 ((_ zero_extend 24) |T1@53884|)))
(let ((?x186 (bvmul ?x185 (_ bv2 32))))
(bvslt ?x186 (_ bv24 32)))))
(assert
(let ((?x13 ((_ zero_extend 24) |T1@53879|)))
(let ((?x15 ((_ zero_extend 24) (_ bv8 8))))
(let ((?x17 ((_ zero_extend 24) |T1@53878|)))
(let ((?x19 ((_ zero_extend 24) |T1@53877|)))
(let ((?x21 ((_ zero_extend 24) |T1@53876|)))
(let ((?x22 (bvshl ?x21 ?x15)))
(let ((?x23 (bvadd ?x22 ?x19)))
(let ((?x24 (bvshl ?x23 ?x15)))
(let ((?x25 (bvadd ?x24 ?x17)))
(let ((?x26 (bvshl ?x25 ?x15)))
(let ((?x27 (bvadd ?x26 ?x13)))
(let ((?x753 (bvadd ?x27 (_ bv2147483655 32))))
(bvule ?x753 (_ bv4294967295 32)))))))))))))))
(assert
(let ((?x13 ((_ zero_extend 24) |T1@53879|)))
(let ((?x15 ((_ zero_extend 24) (_ bv8 8))))
(let ((?x17 ((_ zero_extend 24) |T1@53878|)))
(let ((?x19 ((_ zero_extend 24) |T1@53877|)))
(let ((?x21 ((_ zero_extend 24) |T1@53876|)))
(let ((?x22 (bvshl ?x21 ?x15)))
(let ((?x23 (bvadd ?x22 ?x19)))
(let ((?x24 (bvshl ?x23 ?x15)))
(let ((?x25 (bvadd ?x24 ?x17)))
(let ((?x26 (bvshl ?x25 ?x15)))
(let ((?x27 (bvadd ?x26 ?x13)))
(let ((?x758 (bvadd ?x27 (_ bv2147483651 32))))
(bvule ?x758 (_ bv4294967295 32)))))))))))))))
(assert
(let ((?x13 ((_ zero_extend 24) |T1@53879|)))
(let ((?x15 ((_ zero_extend 24) (_ bv8 8))))
(let ((?x17 ((_ zero_extend 24) |T1@53878|)))
(let ((?x19 ((_ zero_extend 24) |T1@53877|)))
(let ((?x21 ((_ zero_extend 24) |T1@53876|)))
(let ((?x22 (bvshl ?x21 ?x15)))
(let ((?x23 (bvadd ?x22 ?x19)))
(let ((?x24 (bvshl ?x23 ?x15)))
(let ((?x25 (bvadd ?x24 ?x17)))
(let ((?x26 (bvshl ?x25 ?x15)))
(let ((?x27 (bvadd ?x26 ?x13)))
(let ((?x763 (bvadd ?x27 (_ bv2147483649 32))))
(bvule ?x763 (_ bv4294967295 32)))))))))))))))
(assert
(let ((?x13 ((_ zero_extend 24) |T1@53879|)))
(let ((?x15 ((_ zero_extend 24) (_ bv8 8))))
(let ((?x17 ((_ zero_extend 24) |T1@53878|)))
(let ((?x19 ((_ zero_extend 24) |T1@53877|)))
(let ((?x21 ((_ zero_extend 24) |T1@53876|)))
(let ((?x22 (bvshl ?x21 ?x15)))
(let ((?x23 (bvadd ?x22 ?x19)))
(let ((?x24 (bvshl ?x23 ?x15)))
(let ((?x25 (bvadd ?x24 ?x17)))
(let ((?x26 (bvshl ?x25 ?x15)))
(let ((?x27 (bvadd ?x26 ?x13)))
(let ((?x769 (bvadd ?x27 (_ bv2147483648 32))))
(bvule ?x769 (_ bv4294967295 32)))))))))))))))
(assert
(let ((?x13 ((_ zero_extend 24) |T1@53879|)))
(let ((?x15 ((_ zero_extend 24) (_ bv8 8))))
(let ((?x17 ((_ zero_extend 24) |T1@53878|)))
(let ((?x19 ((_ zero_extend 24) |T1@53877|)))
(let ((?x21 ((_ zero_extend 24) |T1@53876|)))
(let ((?x22 (bvshl ?x21 ?x15)))
(let ((?x23 (bvadd ?x22 ?x19)))
(let ((?x24 (bvshl ?x23 ?x15)))
(let ((?x25 (bvadd ?x24 ?x17)))
(let ((?x26 (bvshl ?x25 ?x15)))
(let ((?x27 (bvadd ?x26 ?x13)))
(bvsge ?x27 (_ bv0 32))))))))))))))
(assert
(let ((?x13 ((_ zero_extend 24) |T1@53879|)))
(let ((?x15 ((_ zero_extend 24) (_ bv8 8))))
(let ((?x17 ((_ zero_extend 24) |T1@53878|)))
(let ((?x19 ((_ zero_extend 24) |T1@53877|)))
(let ((?x21 ((_ zero_extend 24) |T1@53876|)))
(let ((?x22 (bvshl ?x21 ?x15)))
(let ((?x23 (bvadd ?x22 ?x19)))
(let ((?x24 (bvshl ?x23 ?x15)))
(let ((?x25 (bvadd ?x24 ?x17)))
(let ((?x26 (bvshl ?x25 ?x15)))
(let ((?x27 (bvadd ?x26 ?x13)))
(bvsgt ?x27 (_ bv0 32))))))))))))))
(assert
(let ((?x13 ((_ zero_extend 24) |T1@53879|)))
(let ((?x15 ((_ zero_extend 24) (_ bv8 8))))
(let ((?x17 ((_ zero_extend 24) |T1@53878|)))
(let ((?x19 ((_ zero_extend 24) |T1@53877|)))
(let ((?x21 ((_ zero_extend 24) |T1@53876|)))
(let ((?x22 (bvshl ?x21 ?x15)))
(let ((?x23 (bvadd ?x22 ?x19)))
(let ((?x24 (bvshl ?x23 ?x15)))
(let ((?x25 (bvadd ?x24 ?x17)))
(let ((?x26 (bvshl ?x25 ?x15)))
(let ((?x27 (bvadd ?x26 ?x13)))
(bvule ?x27 (_ bv67108863 32))))))))))))))
(assert
(let ((?x185 ((_ zero_extend 24) |T1@53884|)))
(let ((?x786 (bvudiv (_ bv2147483640 32) ?x185)))
(let ((?x13 ((_ zero_extend 24) |T1@53879|)))
(let ((?x15 ((_ zero_extend 24) (_ bv8 8))))
(let ((?x17 ((_ zero_extend 24) |T1@53878|)))
(let ((?x19 ((_ zero_extend 24) |T1@53877|)))
(let ((?x21 ((_ zero_extend 24) |T1@53876|)))
(let ((?x22 (bvshl ?x21 ?x15)))
(let ((?x23 (bvadd ?x22 ?x19)))
(let ((?x24 (bvshl ?x23 ?x15)))
(let ((?x25 (bvadd ?x24 ?x17)))
(let ((?x26 (bvshl ?x25 ?x15)))
(let ((?x27 (bvadd ?x26 ?x13)))
(bvule ?x27 ?x786)))))))))))))))
(assert
(let ((?x13 ((_ zero_extend 24) |T1@53879|)))
(let ((?x15 ((_ zero_extend 24) (_ bv8 8))))
(let ((?x17 ((_ zero_extend 24) |T1@53878|)))
(let ((?x19 ((_ zero_extend 24) |T1@53877|)))
(let ((?x21 ((_ zero_extend 24) |T1@53876|)))
(let ((?x22 (bvshl ?x21 ?x15)))
(let ((?x23 (bvadd ?x22 ?x19)))
(let ((?x24 (bvshl ?x23 ?x15)))
(let ((?x25 (bvadd ?x24 ?x17)))
(let ((?x26 (bvshl ?x25 ?x15)))
(let ((?x27 (bvadd ?x26 ?x13)))
(let (($x794 (= ?x27 (_ bv0 32))))
(not $x794))))))))))))))
(assert
(let ((?x13 ((_ zero_extend 24) |T1@53879|)))
(let ((?x15 ((_ zero_extend 24) (_ bv8 8))))
(let ((?x17 ((_ zero_extend 24) |T1@53878|)))
(let ((?x19 ((_ zero_extend 24) |T1@53877|)))
(let ((?x21 ((_ zero_extend 24) |T1@53876|)))
(let ((?x22 (bvshl ?x21 ?x15)))
(let ((?x23 (bvadd ?x22 ?x19)))
(let ((?x24 (bvshl ?x23 ?x15)))
(let ((?x25 (bvadd ?x24 ?x17)))
(let ((?x26 (bvshl ?x25 ?x15)))
(let ((?x27 (bvadd ?x26 ?x13)))
(bvule ?x27 (_ bv512000 32))))))))))))))
(assert
(let ((?x808 (bvmul (_ bv4294967295 32) (_ bv19 32))))
(let ((?x8 ((_ zero_extend 24) (_ bv3 8))))
(let ((?x10 ((_ zero_extend 24) (_ bv1 8))))
(let ((?x11 (bvmul (_ bv4294967295 32) ?x10)))
(let ((?x13 ((_ zero_extend 24) |T1@53879|)))
(let ((?x15 ((_ zero_extend 24) (_ bv8 8))))
(let ((?x17 ((_ zero_extend 24) |T1@53878|)))
(let ((?x19 ((_ zero_extend 24) |T1@53877|)))
(let ((?x21 ((_ zero_extend 24) |T1@53876|)))
(let ((?x22 (bvshl ?x21 ?x15)))
(let ((?x23 (bvadd ?x22 ?x19)))
(let ((?x24 (bvshl ?x23 ?x15)))
(let ((?x25 (bvadd ?x24 ?x17)))
(let ((?x26 (bvshl ?x25 ?x15)))
(let ((?x27 (bvadd ?x26 ?x13)))
(let ((?x28 (bvadd ?x27 ?x11)))
(let ((?x29 (bvlshr ?x28 ?x8)))
(let ((?x809 (bvadd ?x29 ?x808)))
(let (($x810 (= ?x809 (_ bv0 32))))
(not $x810)))))))))))))))))))))
(assert
(let ((?x8 ((_ zero_extend 24) (_ bv3 8))))
(let ((?x10 ((_ zero_extend 24) (_ bv1 8))))
(let ((?x11 (bvmul (_ bv4294967295 32) ?x10)))
(let ((?x13 ((_ zero_extend 24) |T1@53879|)))
(let ((?x15 ((_ zero_extend 24) (_ bv8 8))))
(let ((?x17 ((_ zero_extend 24) |T1@53878|)))
(let ((?x19 ((_ zero_extend 24) |T1@53877|)))
(let ((?x21 ((_ zero_extend 24) |T1@53876|)))
(let ((?x22 (bvshl ?x21 ?x15)))
(let ((?x23 (bvadd ?x22 ?x19)))
(let ((?x24 (bvshl ?x23 ?x15)))
(let ((?x25 (bvadd ?x24 ?x17)))
(let ((?x26 (bvshl ?x25 ?x15)))
(let ((?x27 (bvadd ?x26 ?x13)))
(let ((?x28 (bvadd ?x27 ?x11)))
(let ((?x29 (bvlshr ?x28 ?x8)))
(let (($x819 (= ?x29 (_ bv0 32))))
(not $x819)))))))))))))))))))
(assert
true)
(check-sat)
(exit)
